Solver command line: []

Read LP format model from file C:\Users\wlhlm\AppData\Local\Temp\tmps4qwpih4.pyomo.lp
Reading time = 0.12 seconds
objective: 17812 rows, 17135 columns, 67691 nonzeros
Set parameter TimeLimit to value 5000
Set parameter MIPGap to value 0.08
Gurobi Optimizer version 12.0.1 build v12.0.1rc0 (win64 - Windows 11.0 (26100.2))

CPU model: Intel(R) Core(TM) Ultra 7 258V, instruction set [SSE2|AVX|AVX2]
Thread count: 8 physical cores, 8 logical processors, using up to 8 threads

Non-default parameters:
TimeLimit  5000
MIPGap  0.08

Optimize a model with 17812 rows, 17135 columns and 67691 nonzeros
Model fingerprint: 0xb6fe9fde
Model has 836 quadratic constraints
Variable types: 14784 continuous, 2351 integer (2016 binary)
Coefficient statistics:
  Matrix range     [4e-03, 1e+03]
  QMatrix range    [2e-02, 1e+00]
  QLMatrix range   [1e+00, 4e+00]
  Objective range  [4e+01, 3e+02]
  Bounds range     [1e+00, 3e+00]
  RHS range        [2e-03, 1e+04]
Presolve removed 15828 rows and 15303 columns
Presolve time: 0.12s
Presolved: 1984 rows, 1832 columns, 6119 nonzeros
Variable types: 1496 continuous, 336 integer (336 binary)
Found heuristic solution: objective 2927.1180588

Root relaxation: objective -8.573184e+04, 349 iterations, 0.02 seconds (0.02 work units)

    Nodes    |    Current Node    |     Objective Bounds      |     Work
 Expl Unexpl |  Obj  Depth IntInf | Incumbent    BestBd   Gap | It/Node Time

*    0     0               0    -85731.84312 -85731.843  0.00%     -    0s

Explored 1 nodes (349 simplex iterations) in 0.17 seconds (0.12 work units)
Thread count was 8 (of 8 available processors)

Solution count 2: -85731.8 2927.12 
No other solutions better than -85731.8

Optimal solution found (tolerance 8.00e-02)
Best objective -8.573184312261e+04, best bound -8.573184312261e+04, gap 0.0000%

